(set-option :timeout 5000)
(declare-fun tvw_x () Int)
(assert (<  0   tvw_x ) )
(assert (=  (mod  tvw_x   2 )   0 ) )
(assert (<  2   tvw_x ) )
(assert (=  (mod  tvw_x   2 )   0 ) )
(assert (<  4   tvw_x ) )
(assert (=  (mod  tvw_x   2 )   0 ) )
(assert (<  6   tvw_x ) )
(assert (=  (mod  tvw_x   2 )   0 ) )
(assert (<  8   tvw_x ) )
(assert (=  (mod  tvw_x   2 )   0 ) )
(assert (not  (<  10   tvw_x ) ) )
(check-sat)(get-model)